certificates/rado_a5_c179_N35.cnf
c Rad2 upper bound instance: x1 + 5*x2 - x3 = 179, interval [1,35]
p cnf 35 224
1 5 35 0
-1 -5 -35 0
2 6 35 0
-2 -6 -35 0
3 7 35 0
-3 -7 -35 0
4 8 35 0
-4 -8 -35 0
5 9 35 0
-5 -9 -35 0
1 10 34 0
-1 -10 -34 0
6 10 35 0
-6 -10 -35 0
2 11 34 0
-2 -11 -34 0
7 11 35 0
-7 -11 -35 0
3 12 34 0
-3 -12 -34 0
8 12 35 0
-8 -12 -35 0
4 13 34 0
-4 -13 -34 0
9 13 35 0
-9 -13 -35 0
5 14 34 0
-5 -14 -34 0
10 14 35 0
-10 -14 -35 0
1 15 33 0
-1 -15 -33 0
6 15 34 0
-6 -15 -34 0
11 15 35 0
-11 -15 -35 0
2 16 33 0
-2 -16 -33 0
7 16 34 0
-7 -16 -34 0
12 16 35 0
-12 -16 -35 0
3 17 33 0
-3 -17 -33 0
8 17 34 0
-8 -17 -34 0
13 17 35 0
-13 -17 -35 0
4 18 33 0
-4 -18 -33 0
9 18 34 0
-9 -18 -34 0
14 18 35 0
-14 -18 -35 0
5 19 33 0
-5 -19 -33 0
10 19 34 0
-10 -19 -34 0
15 19 35 0
-15 -19 -35 0
1 20 32 0
-1 -20 -32 0
6 20 33 0
-6 -20 -33 0
11 20 34 0
-11 -20 -34 0
16 20 35 0
-16 -20 -35 0
2 21 32 0
-2 -21 -32 0
7 21 33 0
-7 -21 -33 0
12 21 34 0
-12 -21 -34 0
17 21 35 0
-17 -21 -35 0
3 22 32 0
-3 -22 -32 0
8 22 33 0
-8 -22 -33 0
13 22 34 0
-13 -22 -34 0
18 22 35 0
-18 -22 -35 0
4 23 32 0
-4 -23 -32 0
9 23 33 0
-9 -23 -33 0
14 23 34 0
-14 -23 -34 0
19 23 35 0
-19 -23 -35 0
5 24 32 0
-5 -24 -32 0
10 24 33 0
-10 -24 -33 0
15 24 34 0
-15 -24 -34 0
20 24 35 0
-20 -24 -35 0
1 25 31 0
-1 -25 -31 0
6 25 32 0
-6 -25 -32 0
11 25 33 0
-11 -25 -33 0
16 25 34 0
-16 -25 -34 0
21 25 35 0
-21 -25 -35 0
2 26 31 0
-2 -26 -31 0
7 26 32 0
-7 -26 -32 0
12 26 33 0
-12 -26 -33 0
17 26 34 0
-17 -26 -34 0
22 26 35 0
-22 -26 -35 0
3 27 31 0
-3 -27 -31 0
8 27 32 0
-8 -27 -32 0
13 27 33 0
-13 -27 -33 0
18 27 34 0
-18 -27 -34 0
23 27 35 0
-23 -27 -35 0
4 28 31 0
-4 -28 -31 0
9 28 32 0
-9 -28 -32 0
14 28 33 0
-14 -28 -33 0
19 28 34 0
-19 -28 -34 0
24 28 35 0
-24 -28 -35 0
5 29 31 0
-5 -29 -31 0
10 29 32 0
-10 -29 -32 0
15 29 33 0
-15 -29 -33 0
20 29 34 0
-20 -29 -34 0
25 29 35 0
-25 -29 -35 0
1 30 0
-1 -30 0
6 30 31 0
-6 -30 -31 0
11 30 32 0
-11 -30 -32 0
16 30 33 0
-16 -30 -33 0
21 30 34 0
-21 -30 -34 0
26 30 35 0
-26 -30 -35 0
2 30 31 0
-2 -30 -31 0
7 31 0
-7 -31 0
12 31 32 0
-12 -31 -32 0
17 31 33 0
-17 -31 -33 0
22 31 34 0
-22 -31 -34 0
27 31 35 0
-27 -31 -35 0
3 30 32 0
-3 -30 -32 0
8 31 32 0
-8 -31 -32 0
13 32 0
-13 -32 0
18 32 33 0
-18 -32 -33 0
23 32 34 0
-23 -32 -34 0
28 32 35 0
-28 -32 -35 0
4 30 33 0
-4 -30 -33 0
9 31 33 0
-9 -31 -33 0
14 32 33 0
-14 -32 -33 0
19 33 0
-19 -33 0
24 33 34 0
-24 -33 -34 0
29 33 35 0
-29 -33 -35 0
5 30 34 0
-5 -30 -34 0
10 31 34 0
-10 -31 -34 0
15 32 34 0
-15 -32 -34 0
20 33 34 0
-20 -33 -34 0
25 34 0
-25 -34 0
30 34 35 0
-30 -34 -35 0
1 29 35 0
-1 -29 -35 0
6 30 35 0
-6 -30 -35 0
11 31 35 0
-11 -31 -35 0
16 32 35 0
-16 -32 -35 0
21 33 35 0
-21 -33 -35 0
26 34 35 0
-26 -34 -35 0
31 35 0
-31 -35 0
