certificates/rado_a5_c179_N35.drat
30 -35 0
-27 -35 0
d -23 -27 -35 0
-35 0
31 0
-7 0
3 0
11 0
-27 0
23 0
-30 0
1 0
26 0
34 0
6 0
-25 0
-10 0
-2 0
-17 0
-12 0
-22 0
-20 0
-14 0
-32 0
-15 0
21 0
29 0
0
